(declare-fun var0 () String)
(assert (str.in.re var0 (re.++ (re.+ (re.+ (str.to.re "J"))) (re.++ (re.union (re.+ (str.to.re "H")) (re.+ (str.to.re "III"))) (re.++ (re.union (re.union (str.to.re "EEE") (str.to.re "FF")) (re.+ (str.to.re "GG"))) (re.++ (re.* (re.* (str.to.re "DD"))) (re.++ (re.+ (re.+ (str.to.re "CC"))) (re.++ (re.+ (re.union (str.to.re "AA") (str.to.re "B"))) (re.++ (re.union (re.union (str.to.re "xxx") (str.to.re "yyy")) (re.+ (str.to.re "z"))) (re.++ (re.union (re.+ (str.to.re "v")) (re.+ (str.to.re "www"))) (re.++ (re.* (re.union (str.to.re "tt") (str.to.re "uuu"))) (re.++ (re.* (re.* (str.to.re "sss"))) (re.++ (re.+ (re.* (str.to.re "rrr"))) (re.++ (re.union (re.union (str.to.re "n") (str.to.re "oo")) (re.union (str.to.re "pp") (str.to.re "q"))) (re.++ (re.+ (re.* (str.to.re "m"))) (re.++ (re.* (re.union (str.to.re "kk") (str.to.re "ll"))) (re.++ (re.* (re.union (str.to.re "iii") (str.to.re "jjj"))) (re.++ (re.* (re.union (str.to.re "gg") (str.to.re "hh"))) (re.++ (re.* (re.* (str.to.re "fff"))) (re.++ (re.union (re.* (str.to.re "ddd")) (re.+ (str.to.re "e"))) (re.++ (re.+ (re.union (str.to.re "bbb") (str.to.re "cc"))) (re.++ (re.union (re.union (str.to.re "888") (str.to.re "999")) (re.+ (str.to.re "aaa"))) (re.++ (re.+ (re.+ (str.to.re "777"))) (re.++ (re.* (re.* (str.to.re "6"))) (re.++ (re.* (re.union (str.to.re "4") (str.to.re "5"))) (re.++ (re.+ (re.union (str.to.re "22") (str.to.re "33"))) (re.union (re.+ (str.to.re "000")) (re.+ (str.to.re "1")))))))))))))))))))))))))))))
(check-sat)